RLW06
Position Depot: Random
Horizon for Depot: Large
Position of customers: Random
Distribution of the demand: Medium
Width of time windows: Wide
Distribution of the service: Large

VEHICLE 
NUMBER 	 CAPACITY 
 7 	 	 149 
 
CUSTOMER
CUST NO. 	 XCOORD.  	 YCOORD. 	 DEMAND 	 READY TIME 	 DUE DATE 	 SERVICE TIME 
 0 	 	 792 	 	 20 	 	 0 	 	 0 	 	 3750 	 	 0 
  1 	 	 841 	 	 630 	 	 4 	 	 960 	 	 1334 	 	 134 
  2 	 	 615 	 	 736 	 	 1 	 	 443 	 	 811 	 	 144 
  3 	 	 142 	 	 116 	 	 3 	 	 2543 	 	 3036 	 	 105 
  4 	 	 355 	 	 79 	 	 2 	 	 1047 	 	 1409 	 	 131 
  5 	 	 275 	 	 542 	 	 1 	 	 537 	 	 808 	 	 151 
  6 	 	 380 	 	 956 	 	 4 	 	 756 	 	 1124 	 	 135 
  7 	 	 8 	 	 527 	 	 57 	 	 1311 	 	 1575 	 	 177 
  8 	 	 949 	 	 891 	 	 2 	 	 2533 	 	 3028 	 	 179 
  9 	 	 742 	 	 540 	 	 7 	 	 1993 	 	 2394 	 	 138 
  10 	 	 919 	 	 224 	 	 9 	 	 431 	 	 658 	 	 176 
  11 	 	 520 	 	 112 	 	 4 	 	 3328 	 	 3750 	 	 135 
  12 	 	 559 	 	 20 	 	 5 	 	 2004 	 	 2338 	 	 160 
  13 	 	 129 	 	 412 	 	 6 	 	 369 	 	 847 	 	 146 
  14 	 	 557 	 	 568 	 	 96 	 	 1829 	 	 2326 	 	 103 
  15 	 	 633 	 	 315 	 	 3 	 	 519 	 	 757 	 	 174 
  16 	 	 145 	 	 692 	 	 63 	 	 1796 	 	 2167 	 	 146 
  17 	 	 909 	 	 299 	 	 7 	 	 3199 	 	 3624 	 	 151 
  18 	 	 120 	 	 1000 	 	 5 	 	 1107 	 	 1311 	 	 168 
  19 	 	 975 	 	 9 	 	 91 	 	 346 	 	 740 	 	 195 
  20 	 	 575 	 	 964 	 	 79 	 	 644 	 	 1065 	 	 176 
  21 	 	 695 	 	 432 	 	 6 	 	 1468 	 	 1875 	 	 177 
  22 	 	 473 	 	 54 	 	 1 	 	 2546 	 	 2746 	 	 105 
  23 	 	 851 	 	 113 	 	 9 	 	 1890 	 	 2272 	 	 170 
  24 	 	 277 	 	 801 	 	 91 	 	 1238 	 	 1680 	 	 189 
  25 	 	 251 	 	 949 	 	 65 	 	 695 	 	 1182 	 	 145 
  26 	 	 892 	 	 162 	 	 1 	 	 2703 	 	 3063 	 	 154 
  27 	 	 900 	 	 744 	 	 1 	 	 2316 	 	 2738 	 	 153 
  28 	 	 385 	 	 367 	 	 6 	 	 1645 	 	 1966 	 	 181 
  29 	 	 624 	 	 531 	 	 6 	 	 2627 	 	 2885 	 	 165 
  30 	 	 176 	 	 556 	 	 8 	 	 3376 	 	 3750 	 	 196 
  31 	 	 727 	 	 124 	 	 51 	 	 1813 	 	 2120 	 	 149 
  32 	 	 646 	 	 853 	 	 75 	 	 2777 	 	 3093 	 	 112 
  33 	 	 254 	 	 343 	 	 71 	 	 2526 	 	 2851 	 	 200 
  34 	 	 693 	 	 472 	 	 6 	 	 1867 	 	 2166 	 	 155 
  35 	 	 451 	 	 408 	 	 10 	 	 1831 	 	 2167 	 	 116 
  36 	 	 153 	 	 12 	 	 2 	 	 3165 	 	 3378 	 	 183 
  37 	 	 76 	 	 963 	 	 7 	 	 2503 	 	 2960 	 	 136 
  38 	 	 939 	 	 159 	 	 9 	 	 3256 	 	 3510 	 	 132 
  39 	 	 19 	 	 475 	 	 4 	 	 2002 	 	 2402 	 	 100 
  40 	 	 557 	 	 823 	 	 7 	 	 3469 	 	 3750 	 	 184 
  41 	 	 183 	 	 350 	 	 2 	 	 2937 	 	 3411 	 	 171 
  42 	 	 983 	 	 164 	 	 10 	 	 -143 	 	 319 	 	 127 
  43 	 	 437 	 	 241 	 	 9 	 	 2819 	 	 3116 	 	 189 
  44 	 	 516 	 	 707 	 	 9 	 	 488 	 	 814 	 	 150 
  45 	 	 798 	 	 476 	 	 1 	 	 1462 	 	 1707 	 	 171 
  46 	 	 96 	 	 656 	 	 52 	 	 1962 	 	 2284 	 	 199 
  47 	 	 12 	 	 21 	 	 69 	 	 1739 	 	 2081 	 	 192 
  48 	 	 425 	 	 170 	 	 9 	 	 2717 	 	 3079 	 	 198 
  49 	 	 547 	 	 651 	 	 9 	 	 3082 	 	 3495 	 	 170 
  50 	 	 171 	 	 715 	 	 7 	 	 3160 	 	 3462 	 	 163 
 